p cnf 450 1102
-1 241 227 0
1 -241 0
1 -227 0
-2 242 226 228 0
2 -242 0
2 -226 0
2 -228 0
-3 243 227 229 0
3 -243 0
3 -227 0
3 -229 0
-4 244 228 230 0
4 -244 0
4 -228 0
4 -230 0
-5 245 229 231 0
5 -245 0
5 -229 0
5 -231 0
-6 246 230 232 0
6 -246 0
6 -230 0
6 -232 0
-7 247 231 233 0
7 -247 0
7 -231 0
7 -233 0
-8 248 232 234 0
8 -248 0
8 -232 0
8 -234 0
-9 249 233 235 0
9 -249 0
9 -233 0
9 -235 0
-10 250 234 236 0
10 -250 0
10 -234 0
10 -236 0
-11 251 235 237 0
11 -251 0
11 -235 0
11 -237 0
-12 252 236 238 0
12 -252 0
12 -236 0
12 -238 0
-13 253 237 239 0
13 -253 0
13 -237 0
13 -239 0
-14 254 238 240 0
14 -254 0
14 -238 0
14 -240 0
-15 255 239 0
15 -255 0
15 -239 0
-16 226 256 242 0
16 -226 0
16 -256 0
16 -242 0
-17 227 257 241 243 0
17 -227 0
17 -257 0
17 -241 0
17 -243 0
-18 228 258 242 244 0
18 -228 0
18 -258 0
18 -242 0
18 -244 0
-19 229 259 243 245 0
19 -229 0
19 -259 0
19 -243 0
19 -245 0
-20 230 260 244 246 0
20 -230 0
20 -260 0
20 -244 0
20 -246 0
-21 231 261 245 247 0
21 -231 0
21 -261 0
21 -245 0
21 -247 0
-22 232 262 246 248 0
22 -232 0
22 -262 0
22 -246 0
22 -248 0
-23 233 263 247 249 0
23 -233 0
23 -263 0
23 -247 0
23 -249 0
-24 234 264 248 250 0
24 -234 0
24 -264 0
24 -248 0
24 -250 0
-25 235 265 249 251 0
25 -235 0
25 -265 0
25 -249 0
25 -251 0
-26 236 266 250 252 0
26 -236 0
26 -266 0
26 -250 0
26 -252 0
-27 237 267 251 253 0
27 -237 0
27 -267 0
27 -251 0
27 -253 0
-28 238 268 252 254 0
28 -238 0
28 -268 0
28 -252 0
28 -254 0
-29 239 269 253 255 0
29 -239 0
29 -269 0
29 -253 0
29 -255 0
-30 240 270 254 0
30 -240 0
30 -270 0
30 -254 0
-31 241 271 257 0
31 -241 0
31 -271 0
31 -257 0
-32 242 272 256 258 0
32 -242 0
32 -272 0
32 -256 0
32 -258 0
-33 243 273 257 259 0
33 -243 0
33 -273 0
33 -257 0
33 -259 0
-34 244 274 258 260 0
34 -244 0
34 -274 0
34 -258 0
34 -260 0
-35 245 275 259 261 0
35 -245 0
35 -275 0
35 -259 0
35 -261 0
-36 246 276 260 262 0
36 -246 0
36 -276 0
36 -260 0
36 -262 0
-37 247 277 261 263 0
37 -247 0
37 -277 0
37 -261 0
37 -263 0
-38 248 278 262 264 0
38 -248 0
38 -278 0
38 -262 0
38 -264 0
-39 249 279 263 265 0
39 -249 0
39 -279 0
39 -263 0
39 -265 0
-40 250 280 264 266 0
40 -250 0
40 -280 0
40 -264 0
40 -266 0
-41 251 281 265 267 0
41 -251 0
41 -281 0
41 -265 0
41 -267 0
-42 252 282 266 268 0
42 -252 0
42 -282 0
42 -266 0
42 -268 0
-43 253 283 267 269 0
43 -253 0
43 -283 0
43 -267 0
43 -269 0
-44 254 284 268 270 0
44 -254 0
44 -284 0
44 -268 0
44 -270 0
-45 255 285 269 0
45 -255 0
45 -285 0
45 -269 0
-46 256 286 272 0
46 -256 0
46 -286 0
46 -272 0
-47 257 287 271 273 0
47 -257 0
47 -287 0
47 -271 0
47 -273 0
-48 258 288 272 274 0
48 -258 0
48 -288 0
48 -272 0
48 -274 0
-49 259 289 273 275 0
49 -259 0
49 -289 0
49 -273 0
49 -275 0
-50 260 290 274 276 0
50 -260 0
50 -290 0
50 -274 0
50 -276 0
-51 261 291 275 277 0
51 -261 0
51 -291 0
51 -275 0
51 -277 0
-52 262 292 276 278 0
52 -262 0
52 -292 0
52 -276 0
52 -278 0
-53 263 293 277 279 0
53 -263 0
53 -293 0
53 -277 0
53 -279 0
-54 264 294 278 280 0
54 -264 0
54 -294 0
54 -278 0
54 -280 0
-55 265 295 279 281 0
55 -265 0
55 -295 0
55 -279 0
55 -281 0
-56 266 296 280 282 0
56 -266 0
56 -296 0
56 -280 0
56 -282 0
-57 267 297 281 283 0
57 -267 0
57 -297 0
57 -281 0
57 -283 0
-58 268 298 282 284 0
58 -268 0
58 -298 0
58 -282 0
58 -284 0
-59 269 299 283 285 0
59 -269 0
59 -299 0
59 -283 0
59 -285 0
-60 270 300 284 0
60 -270 0
60 -300 0
60 -284 0
-61 271 301 287 0
61 -271 0
61 -301 0
61 -287 0
-62 272 302 286 288 0
62 -272 0
62 -302 0
62 -286 0
62 -288 0
-63 273 303 287 289 0
63 -273 0
63 -303 0
63 -287 0
63 -289 0
-64 274 304 288 290 0
64 -274 0
64 -304 0
64 -288 0
64 -290 0
-65 275 305 289 291 0
65 -275 0
65 -305 0
65 -289 0
65 -291 0
-66 276 306 290 292 0
66 -276 0
66 -306 0
66 -290 0
66 -292 0
-67 277 307 291 293 0
67 -277 0
67 -307 0
67 -291 0
67 -293 0
-68 278 308 292 294 0
68 -278 0
68 -308 0
68 -292 0
68 -294 0
-69 279 309 293 295 0
69 -279 0
69 -309 0
69 -293 0
69 -295 0
-70 280 310 294 296 0
70 -280 0
70 -310 0
70 -294 0
70 -296 0
-71 281 311 295 297 0
71 -281 0
71 -311 0
71 -295 0
71 -297 0
-72 282 312 296 298 0
72 -282 0
72 -312 0
72 -296 0
72 -298 0
-73 283 313 297 299 0
73 -283 0
73 -313 0
73 -297 0
73 -299 0
-74 284 314 298 300 0
74 -284 0
74 -314 0
74 -298 0
74 -300 0
-75 285 315 299 0
75 -285 0
75 -315 0
75 -299 0
-76 286 316 302 0
76 -286 0
76 -316 0
76 -302 0
-77 287 317 301 303 0
77 -287 0
77 -317 0
77 -301 0
77 -303 0
-78 288 318 302 304 0
78 -288 0
78 -318 0
78 -302 0
78 -304 0
-79 289 319 303 305 0
79 -289 0
79 -319 0
79 -303 0
79 -305 0
-80 290 320 304 306 0
80 -290 0
80 -320 0
80 -304 0
80 -306 0
-81 291 321 305 307 0
81 -291 0
81 -321 0
81 -305 0
81 -307 0
-82 292 322 306 308 0
82 -292 0
82 -322 0
82 -306 0
82 -308 0
-83 293 323 307 309 0
83 -293 0
83 -323 0
83 -307 0
83 -309 0
-84 294 324 308 310 0
84 -294 0
84 -324 0
84 -308 0
84 -310 0
-85 295 325 309 311 0
85 -295 0
85 -325 0
85 -309 0
85 -311 0
-86 296 326 310 312 0
86 -296 0
86 -326 0
86 -310 0
86 -312 0
-87 297 327 311 313 0
87 -297 0
87 -327 0
87 -311 0
87 -313 0
-88 298 328 312 314 0
88 -298 0
88 -328 0
88 -312 0
88 -314 0
-89 299 329 313 315 0
89 -299 0
89 -329 0
89 -313 0
89 -315 0
-90 300 330 314 0
90 -300 0
90 -330 0
90 -314 0
-91 301 331 317 0
91 -301 0
91 -331 0
91 -317 0
-92 302 332 316 318 0
92 -302 0
92 -332 0
92 -316 0
92 -318 0
-93 303 333 317 319 0
93 -303 0
93 -333 0
93 -317 0
93 -319 0
-94 304 334 318 320 0
94 -304 0
94 -334 0
94 -318 0
94 -320 0
-95 305 335 319 321 0
95 -305 0
95 -335 0
95 -319 0
95 -321 0
-96 306 336 320 322 0
96 -306 0
96 -336 0
96 -320 0
96 -322 0
-97 307 337 321 323 0
97 -307 0
97 -337 0
97 -321 0
97 -323 0
-98 308 338 322 324 0
98 -308 0
98 -338 0
98 -322 0
98 -324 0
-99 309 339 323 325 0
99 -309 0
99 -339 0
99 -323 0
99 -325 0
-100 310 340 324 326 0
100 -310 0
100 -340 0
100 -324 0
100 -326 0
-101 311 341 325 327 0
101 -311 0
101 -341 0
101 -325 0
101 -327 0
-102 312 342 326 328 0
102 -312 0
102 -342 0
102 -326 0
102 -328 0
-103 313 343 327 329 0
103 -313 0
103 -343 0
103 -327 0
103 -329 0
-104 314 344 328 330 0
104 -314 0
104 -344 0
104 -328 0
104 -330 0
-105 315 345 329 0
105 -315 0
105 -345 0
105 -329 0
-106 316 346 332 0
106 -316 0
106 -346 0
106 -332 0
-107 317 347 331 333 0
107 -317 0
107 -347 0
107 -331 0
107 -333 0
-108 318 348 332 334 0
108 -318 0
108 -348 0
108 -332 0
108 -334 0
-109 319 349 333 335 0
109 -319 0
109 -349 0
109 -333 0
109 -335 0
-110 320 350 334 336 0
110 -320 0
110 -350 0
110 -334 0
110 -336 0
-111 321 351 335 337 0
111 -321 0
111 -351 0
111 -335 0
111 -337 0
-112 322 352 336 338 0
112 -322 0
112 -352 0
112 -336 0
112 -338 0
-113 323 353 337 339 0
113 -323 0
113 -353 0
113 -337 0
113 -339 0
-114 324 354 338 340 0
114 -324 0
114 -354 0
114 -338 0
114 -340 0
-115 325 355 339 341 0
115 -325 0
115 -355 0
115 -339 0
115 -341 0
-116 326 356 340 342 0
116 -326 0
116 -356 0
116 -340 0
116 -342 0
-117 327 357 341 343 0
117 -327 0
117 -357 0
117 -341 0
117 -343 0
-118 328 358 342 344 0
118 -328 0
118 -358 0
118 -342 0
118 -344 0
-119 329 359 343 345 0
119 -329 0
119 -359 0
119 -343 0
119 -345 0
-120 330 360 344 0
120 -330 0
120 -360 0
120 -344 0
-121 331 361 347 0
121 -331 0
121 -361 0
121 -347 0
-122 332 362 346 348 0
122 -332 0
122 -362 0
122 -346 0
122 -348 0
-123 333 363 347 349 0
123 -333 0
123 -363 0
123 -347 0
123 -349 0
-124 334 364 348 350 0
124 -334 0
124 -364 0
124 -348 0
124 -350 0
-125 335 365 349 351 0
125 -335 0
125 -365 0
125 -349 0
125 -351 0
-126 336 366 350 352 0
126 -336 0
126 -366 0
126 -350 0
126 -352 0
-127 337 367 351 353 0
127 -337 0
127 -367 0
127 -351 0
127 -353 0
-128 338 368 352 354 0
128 -338 0
128 -368 0
128 -352 0
128 -354 0
-129 339 369 353 355 0
129 -339 0
129 -369 0
129 -353 0
129 -355 0
-130 340 370 354 356 0
130 -340 0
130 -370 0
130 -354 0
130 -356 0
-131 341 371 355 357 0
131 -341 0
131 -371 0
131 -355 0
131 -357 0
-132 342 372 356 358 0
132 -342 0
132 -372 0
132 -356 0
132 -358 0
-133 343 373 357 359 0
133 -343 0
133 -373 0
133 -357 0
133 -359 0
-134 344 374 358 360 0
134 -344 0
134 -374 0
134 -358 0
134 -360 0
-135 345 375 359 0
135 -345 0
135 -375 0
135 -359 0
-136 346 376 362 0
136 -346 0
136 -376 0
136 -362 0
-137 347 377 361 363 0
137 -347 0
137 -377 0
137 -361 0
137 -363 0
-138 348 378 362 364 0
138 -348 0
138 -378 0
138 -362 0
138 -364 0
-139 349 379 363 365 0
139 -349 0
139 -379 0
139 -363 0
139 -365 0
-140 350 380 364 366 0
140 -350 0
140 -380 0
140 -364 0
140 -366 0
-141 351 381 365 367 0
141 -351 0
141 -381 0
141 -365 0
141 -367 0
-142 352 382 366 368 0
142 -352 0
142 -382 0
142 -366 0
142 -368 0
-143 353 383 367 369 0
143 -353 0
143 -383 0
143 -367 0
143 -369 0
-144 354 384 368 370 0
144 -354 0
144 -384 0
144 -368 0
144 -370 0
-145 355 385 369 371 0
145 -355 0
145 -385 0
145 -369 0
145 -371 0
-146 356 386 370 372 0
146 -356 0
146 -386 0
146 -370 0
146 -372 0
-147 357 387 371 373 0
147 -357 0
147 -387 0
147 -371 0
147 -373 0
-148 358 388 372 374 0
148 -358 0
148 -388 0
148 -372 0
148 -374 0
-149 359 389 373 375 0
149 -359 0
149 -389 0
149 -373 0
149 -375 0
-150 360 390 374 0
150 -360 0
150 -390 0
150 -374 0
-151 361 391 377 0
151 -361 0
151 -391 0
151 -377 0
-152 362 392 376 378 0
152 -362 0
152 -392 0
152 -376 0
152 -378 0
-153 363 393 377 379 0
153 -363 0
153 -393 0
153 -377 0
153 -379 0
-154 364 394 378 380 0
154 -364 0
154 -394 0
154 -378 0
154 -380 0
-155 365 395 379 381 0
155 -365 0
155 -395 0
155 -379 0
155 -381 0
-156 366 396 380 382 0
156 -366 0
156 -396 0
156 -380 0
156 -382 0
-157 367 397 381 383 0
157 -367 0
157 -397 0
157 -381 0
157 -383 0
-158 368 398 382 384 0
158 -368 0
158 -398 0
158 -382 0
158 -384 0
-159 369 399 383 385 0
159 -369 0
159 -399 0
159 -383 0
159 -385 0
-160 370 400 384 386 0
160 -370 0
160 -400 0
160 -384 0
160 -386 0
-161 371 401 385 387 0
161 -371 0
161 -401 0
161 -385 0
161 -387 0
-162 372 402 386 388 0
162 -372 0
162 -402 0
162 -386 0
162 -388 0
-163 373 403 387 389 0
163 -373 0
163 -403 0
163 -387 0
163 -389 0
-164 374 404 388 390 0
164 -374 0
164 -404 0
164 -388 0
164 -390 0
-165 375 405 389 0
165 -375 0
165 -405 0
165 -389 0
-166 376 406 392 0
166 -376 0
166 -406 0
166 -392 0
-167 377 407 391 393 0
167 -377 0
167 -407 0
167 -391 0
167 -393 0
-168 378 408 392 394 0
168 -378 0
168 -408 0
168 -392 0
168 -394 0
-169 379 409 393 395 0
169 -379 0
169 -409 0
169 -393 0
169 -395 0
-170 380 410 394 396 0
170 -380 0
170 -410 0
170 -394 0
170 -396 0
-171 381 411 395 397 0
171 -381 0
171 -411 0
171 -395 0
171 -397 0
-172 382 412 396 398 0
172 -382 0
172 -412 0
172 -396 0
172 -398 0
-173 383 413 397 399 0
173 -383 0
173 -413 0
173 -397 0
173 -399 0
-174 384 414 398 400 0
174 -384 0
174 -414 0
174 -398 0
174 -400 0
-175 385 415 399 401 0
175 -385 0
175 -415 0
175 -399 0
175 -401 0
-176 386 416 400 402 0
176 -386 0
176 -416 0
176 -400 0
176 -402 0
-177 387 417 401 403 0
177 -387 0
177 -417 0
177 -401 0
177 -403 0
-178 388 418 402 404 0
178 -388 0
178 -418 0
178 -402 0
178 -404 0
-179 389 419 403 405 0
179 -389 0
179 -419 0
179 -403 0
179 -405 0
-180 390 420 404 0
180 -390 0
180 -420 0
180 -404 0
-181 391 421 407 0
181 -391 0
181 -421 0
181 -407 0
-182 392 422 406 408 0
182 -392 0
182 -422 0
182 -406 0
182 -408 0
-183 393 423 407 409 0
183 -393 0
183 -423 0
183 -407 0
183 -409 0
-184 394 424 408 410 0
184 -394 0
184 -424 0
184 -408 0
184 -410 0
-185 395 425 409 411 0
185 -395 0
185 -425 0
185 -409 0
185 -411 0
-186 396 426 410 412 0
186 -396 0
186 -426 0
186 -410 0
186 -412 0
-187 397 427 411 413 0
187 -397 0
187 -427 0
187 -411 0
187 -413 0
-188 398 428 412 414 0
188 -398 0
188 -428 0
188 -412 0
188 -414 0
-189 399 429 413 415 0
189 -399 0
189 -429 0
189 -413 0
189 -415 0
-190 400 430 414 416 0
190 -400 0
190 -430 0
190 -414 0
190 -416 0
-191 401 431 415 417 0
191 -401 0
191 -431 0
191 -415 0
191 -417 0
-192 402 432 416 418 0
192 -402 0
192 -432 0
192 -416 0
192 -418 0
-193 403 433 417 419 0
193 -403 0
193 -433 0
193 -417 0
193 -419 0
-194 404 434 418 420 0
194 -404 0
194 -434 0
194 -418 0
194 -420 0
-195 405 435 419 0
195 -405 0
195 -435 0
195 -419 0
-196 406 436 422 0
196 -406 0
196 -436 0
196 -422 0
-197 407 437 421 423 0
197 -407 0
197 -437 0
197 -421 0
197 -423 0
-198 408 438 422 424 0
198 -408 0
198 -438 0
198 -422 0
198 -424 0
-199 409 439 423 425 0
199 -409 0
199 -439 0
199 -423 0
199 -425 0
-200 410 440 424 426 0
200 -410 0
200 -440 0
200 -424 0
200 -426 0
-201 411 441 425 427 0
201 -411 0
201 -441 0
201 -425 0
201 -427 0
-202 412 442 426 428 0
202 -412 0
202 -442 0
202 -426 0
202 -428 0
-203 413 443 427 429 0
203 -413 0
203 -443 0
203 -427 0
203 -429 0
-204 414 444 428 430 0
204 -414 0
204 -444 0
204 -428 0
204 -430 0
-205 415 445 429 431 0
205 -415 0
205 -445 0
205 -429 0
205 -431 0
-206 416 446 430 432 0
206 -416 0
206 -446 0
206 -430 0
206 -432 0
-207 417 447 431 433 0
207 -417 0
207 -447 0
207 -431 0
207 -433 0
-208 418 448 432 434 0
208 -418 0
208 -448 0
208 -432 0
208 -434 0
-209 419 449 433 435 0
209 -419 0
209 -449 0
209 -433 0
209 -435 0
-210 420 450 434 0
210 -420 0
210 -450 0
210 -434 0
-211 421 437 0
211 -421 0
211 -437 0
-212 422 436 438 0
212 -422 0
212 -436 0
212 -438 0
-213 423 437 439 0
213 -423 0
213 -437 0
213 -439 0
-214 424 438 440 0
214 -424 0
214 -438 0
214 -440 0
-215 425 439 441 0
215 -425 0
215 -439 0
215 -441 0
-216 426 440 442 0
216 -426 0
216 -440 0
216 -442 0
-217 427 441 443 0
217 -427 0
217 -441 0
217 -443 0
-218 428 442 444 0
218 -428 0
218 -442 0
218 -444 0
-219 429 443 445 0
219 -429 0
219 -443 0
219 -445 0
-220 430 444 446 0
220 -430 0
220 -444 0
220 -446 0
-221 431 445 447 0
221 -431 0
221 -445 0
221 -447 0
-222 432 446 448 0
222 -432 0
222 -446 0
222 -448 0
-223 433 447 449 0
223 -433 0
223 -447 0
223 -449 0
-224 434 448 450 0
224 -434 0
224 -448 0
224 -450 0
-225 435 449 0
225 -435 0
225 -449 0
-1 0
-16 0
31 0
-17 0
-2 0
-3 0
18 0
4 0
-32 0
47 0
-33 0
-48 0
-63 0
78 0
-62 0
77 0
61 0
64 0
-49 0
34 0
-50 0
-35 0
20 0
-36 0
-21 0
-6 0
-5 0
-7 0
-22 0
37 0
-23 0
-8 0
-9 0
-24 0
-39 0
54 0
294 0
